Problem:    exercici1
Rows:       3
Columns:    7 (7 integer, 7 binary)
Non-zeros:  20
Status:     INTEGER OPTIMAL
Objective:  tempsPublicitat = 52 (MAXimum)

   No.   Row name        Activity     Lower bound   Upper bound
------ ------------    ------------- ------------- -------------
     1 tempsPublicitat
                                  52                             
     2 duradaTotal               300           300             = 
     3 mitjanaAudiencia
                                0.05            -0               

   No. Column name       Activity     Lower bound   Upper bound
------ ------------    ------------- ------------- -------------
     1 x[a]         *              1             0             1 
     2 x[b]         *              0             0             1 
     3 x[c]         *              1             0             1 
     4 x[d]         *              1             0             1 
     5 x[e]         *              1             0             1 
     6 x[f]         *              1             0             1 
     7 x[g]         *              0             0             1 

Integer feasibility conditions:

KKT.PE: max.abs.err = 0.00e+00 on row 0
        max.rel.err = 0.00e+00 on row 0
        High quality

KKT.PB: max.abs.err = 0.00e+00 on row 0
        max.rel.err = 0.00e+00 on row 0
        High quality

End of output
